letting n be 12
letting exclusions be [
]
letting assignments be [
[4, 6, 1, 11]
,
[6, 3, 2, 5]
,
[11, 2, 2, 9]
,
[1, 2, 1, 5]
,
[3, 4, 2, 10]
,
[9, 4, 2, 11]
,
[11, 6, 2, 2]
,
[5, 3, 2, 6]
,
[9, 1, 2, 8]
,
[1, 6, 2, 7]
]
